(set-logic ALL)
(declare-fun seed0_T_1 () Bool)
(declare-fun seed0_T_2 () Bool)
(declare-fun seed0_T_3 () Bool)
(declare-fun seed0_T_4 () Bool)
(declare-fun seed0_var_0xINPUT_284518 () String)
(assert (and (or (= seed0_T_1 (not (= "ND6MEXdqBD" seed0_var_0xINPUT_284518))) (xor (str.contains (str.++ seed0_var_0xINPUT_284518 "wXfzASEG4PqodY290g") (str.++ seed0_var_0xINPUT_284518 "JoDKAM5IbhN")) (str.suffixof (str.++ seed0_var_0xINPUT_284518 "JfD") (str.++ seed0_var_0xINPUT_284518 "l10fI")))) (or seed0_T_1 (=> (str.contains (str.++ seed0_var_0xINPUT_284518 "F54MqK8") (str.++ seed0_var_0xINPUT_284518 "O6CvU04w1W5VQrcH")) (str.prefixof (str.++ seed0_var_0xINPUT_284518 "1LamRMZ0") (str.++ seed0_var_0xINPUT_284518 "GbMeOIHvD")))) (or (= seed0_T_2 (not (= "" seed0_var_0xINPUT_284518))) (and (str.<= (str.++ seed0_var_0xINPUT_284518 "WySJ65sHr9EmRnCix") (str.++ seed0_var_0xINPUT_284518 "LIvNB9V")) (str.<= (str.++ seed0_var_0xINPUT_284518 "TI0kw95sZczyvDaKl") (str.++ seed0_var_0xINPUT_284518 "")))) (or seed0_T_2 (str.< (str.++ seed0_var_0xINPUT_284518 "MVfJnXyINbjlTrms5q3i") (str.++ seed0_var_0xINPUT_284518 "EwfdjMyOUDNR"))) (or (= seed0_T_3 (not (= seed0_var_0xINPUT_284518 "3s71lxYG6e"))) (not (str.prefixof (str.++ seed0_var_0xINPUT_284518 "c6dqOwMm0uKfv") (str.++ seed0_var_0xINPUT_284518 "GMqVk3d")))) (or (= seed0_T_4 (not seed0_T_3)) (not (str.< (str.++ seed0_var_0xINPUT_284518 "OG2") (str.++ seed0_var_0xINPUT_284518 "r5ATWXS7DaN6cY")))) (or seed0_T_4 (or (str.< (str.++ seed0_var_0xINPUT_284518 "CEZzanb") (str.++ seed0_var_0xINPUT_284518 "k1JCzjHpg4MN")) (str.<= (str.++ seed0_var_0xINPUT_284518 "O9bkcNfavY") (str.++ seed0_var_0xINPUT_284518 "Tq1"))))))
(check-sat)
(exit)